
List of user-set options:

                                    Name   Value                used
                linear_scaling_on_demand = no                    yes
                           linear_solver = ma86                  yes
                   linear_system_scaling = mc19                  yes
                                max_iter = 500                   yes
                                 mu_init = 1e-06                 yes
                             output_file = ./tmp/ipopt_output_tmp.output  yes
                      print_user_options = yes                   yes
                   warm_start_bound_push = 1e-20                 yes
                   warm_start_init_point = yes                   yes
              warm_start_mult_bound_push = 1e-20                 yes

******************************************************************************
This program contains Ipopt, a library for large-scale nonlinear optimization.
 Ipopt is released as open source code under the Eclipse Public License (EPL).
         For more information visit http://projects.coin-or.org/Ipopt
******************************************************************************

This is Ipopt version 3.12.8, running with linear solver ma86.

Number of nonzeros in equality constraint Jacobian...:   102992
Number of nonzeros in inequality constraint Jacobian.:      445
Number of nonzeros in Lagrangian Hessian.............:   102674

Total number of variables............................:    29094
                     variables with only lower bounds:    11234
                variables with lower and upper bounds:    14333
                     variables with only upper bounds:        0
Total number of equality constraints.................:    28998
Total number of inequality constraints...............:       25
        inequality constraints with only lower bounds:        0
   inequality constraints with lower and upper bounds:        0
        inequality constraints with only upper bounds:       25

iter    objective    inf_pr   inf_du lg(mu)  ||d||  lg(rg) alpha_du alpha_pr  ls
   0 -1.0564149e-01 1.61e-04 5.32e+00  -6.0 0.00e+00    -  0.00e+00 0.00e+00   0
   1 -1.0564149e-01 1.61e-04 5.35e+00  -6.0 7.65e+03  -4.0 3.36e-04 1.20e-09f  2
   2 -1.0562841e-01 2.33e+00 5.41e+00  -6.0 2.65e+02  -4.5 2.44e-03 1.71e-03f  1
   3 -1.0639284e-01 2.24e+00 7.49e+01  -6.0 7.82e+02  -5.0 6.24e-02 3.20e-02f  1
   4 -1.0642981e-01 4.45e+00 4.45e+02  -6.0 2.84e+02  -5.4 3.08e-02 1.37e-01f  1
   5 -1.0639027e-01 3.47e+00 3.84e+02  -6.0 2.31e+02  -5.0 1.54e-01 1.39e-01h  1
   6 -1.0901199e-01 2.85e+00 2.94e+02  -6.0 1.42e+02  -5.5 1.22e-01 2.39e-01h  1
   7 -1.0859691e-01 1.42e+00 1.61e+02  -6.0 3.71e+01  -5.1 5.49e-01 5.08e-01h  1
   8 -1.0853975e-01 1.27e+00 1.44e+02  -6.0 1.37e+01  -5.5 2.70e-01 1.08e-01h  1
   9 -1.0856584e-01 1.22e+00 1.38e+02  -6.0 2.12e+01  -6.0 8.45e-01 3.76e-02h  1
iter    objective    inf_pr   inf_du lg(mu)  ||d||  lg(rg) alpha_du alpha_pr  ls
  10 -1.0846350e-01 8.72e-01 9.69e+01  -6.0 7.48e+00  -5.6 2.08e-01 3.01e-01h  1
  11 -1.0859773e-01 5.95e-01 6.56e+01  -6.0 1.39e+01  -6.1 3.71e-01 3.21e-01h  1
  12 -1.0842702e-01 2.37e-01 2.15e+01  -6.0 5.19e+00  -5.6 5.26e-01 6.77e-01h  1
  13 -1.0866211e-01 1.87e-01 8.12e+00  -6.0 1.04e+01  -6.1 8.63e-01 6.24e-01h  1
  14 -1.0875363e-01 7.38e-02 1.31e+00  -6.0 4.16e+00  -5.7 1.00e+00 8.41e-01h  1
  15 -1.0888351e-01 1.39e-01 1.32e+01  -6.0 1.57e+01  -6.2 1.00e+00 2.78e-01h  1
  16 -1.0934389e-01 5.99e-01 1.69e+01  -6.0 2.06e+01  -6.6 1.00e+00 5.15e-01h  1
  17 -1.0952044e-01 2.47e-01 1.33e+01  -6.0 8.33e+00  -6.2 1.00e+00 7.62e-01h  1
  18 -1.0977647e-01 4.81e-01 2.71e+01  -6.0 1.68e+01  -6.7 1.00e+00 7.76e-01h  1
  19 -1.0987978e-01 1.79e-01 1.48e+01  -6.0 6.31e+00  -6.3 1.00e+00 9.22e-01h  1
iter    objective    inf_pr   inf_du lg(mu)  ||d||  lg(rg) alpha_du alpha_pr  ls
  20 -1.0995383e-01 1.61e-01 3.40e+01  -6.0 1.28e+01  -6.7 1.00e+00 7.92e-01f  1
  21 -1.1019886e-01 8.93e-01 1.39e+01  -6.0 3.48e+01  -7.2 1.00e+00 1.00e+00h  1
  22 -1.1034024e-01 1.41e+00 1.52e+01  -6.0 1.96e+02  -7.7 1.43e-01 1.61e-01h  1
  23 -1.1055603e-01 1.26e+00 1.32e+01  -6.0 3.61e+02  -8.2 1.59e-01 1.17e-01h  1
  24 -1.1065315e-01 1.09e+00 1.11e+01  -6.0 1.27e+02  -7.7 1.00e+00 1.36e-01h  1
  25 -1.1155779e-01 7.73e-01 4.36e+01  -6.0 4.94e+02  -8.2 1.62e-01 3.42e-01h  1
  26 -1.1158116e-01 7.54e-01 4.25e+01  -6.0 3.89e+02  -8.7 4.27e-01 2.66e-02h  1
  27 -1.1229830e-01 9.21e-01 2.83e+01  -6.0 6.24e+02  -9.2 1.58e-01 3.32e-01h  1
  28 -1.1253051e-01 5.64e+00 6.05e+01  -6.0 1.99e+03  -7.9 9.58e-04 3.93e-02h  1
  29 -1.1245613e-01 5.07e+00 5.50e+01  -6.0 1.41e+02  -8.3 1.27e-04 9.10e-02h  4
iter    objective    inf_pr   inf_du lg(mu)  ||d||  lg(rg) alpha_du alpha_pr  ls
  30 -1.1258365e-01 3.55e+00 3.85e+01  -6.0 2.51e+01  -6.1 8.01e-02 3.04e-01h  1
  31 -1.1282198e-01 1.63e+00 1.79e+01  -6.0 2.30e+01  -6.6 8.46e-01 5.32e-01h  1
  32 -1.1282521e-01 1.44e+00 1.58e+01  -6.0 2.09e+01  -7.1 1.00e+00 1.21e-01h  1
  33 -1.1303472e-01 8.78e-01 9.42e+00  -6.0 7.43e+01  -7.5 2.19e-01 4.04e-01h  1
  34 -1.1306474e-01 8.70e-01 6.75e+02  -6.0 3.98e+02  -8.0 3.04e-02 9.14e-03h  1
  35 -1.1310550e-01 8.40e-01 4.87e+02  -6.0 3.12e+02  -8.5 4.68e-01 3.39e-02h  1
  36 -1.1321901e-01 8.26e-01 2.78e+03  -6.0 1.16e+03  -8.1 5.76e-03 1.71e-02h  1
  37 -1.1392218e-01 6.34e-01 1.83e+03  -6.0 4.24e+02  -8.5 1.29e-01 2.84e-01h  1
  38 -1.1393231e-01 6.23e-01 3.41e+03  -6.0 1.11e+02  -7.2 5.91e-01 1.78e-02h  1
  39 -1.1443566e-01 1.29e-01 1.07e+03  -6.0 8.67e+01  -7.7 9.50e-01 1.00e+00h  1
iter    objective    inf_pr   inf_du lg(mu)  ||d||  lg(rg) alpha_du alpha_pr  ls
  40 -1.1529315e-01 5.58e-01 3.93e+02  -6.0 1.81e+02  -8.2 7.77e-01 1.00e+00h  1
  41 -1.1565655e-01 2.83e+00 3.92e+02  -6.0 1.27e+05    -  1.92e-03 2.97e-03h  1
  42 -1.1649490e-01 7.81e-01 5.52e+01  -6.0 2.23e+02  -8.6 6.61e-01 1.00e+00h  1
  43 -1.1693615e-01 7.71e-01 9.39e+01  -6.0 1.03e+03  -9.1 2.48e-01 2.19e-01h  1
  44 -1.1876752e-01 3.20e+01 1.51e+02  -6.0 1.80e+03  -9.6 8.76e-03 7.01e-01h  1
  45 -1.1982558e-01 9.24e+00 5.92e+01  -6.0 5.22e+02  -9.2 5.09e-02 8.20e-01h  1
  46 -1.2050879e-01 1.25e+01 5.78e+01  -6.0 1.55e+04  -9.6 2.12e-02 2.56e-02h  1
  47 -1.2265223e-01 2.37e+01 6.72e+01  -6.0 1.28e+03  -9.2 9.19e-02 7.39e-01h  1
  48 -1.2277338e-01 2.36e+01 6.46e+01  -6.0 9.07e+03  -9.7 3.99e-02 5.51e-03h  1
  49 -1.2292049e-01 2.33e+01 4.87e+01  -6.0 3.10e+04 -10.2 2.79e-02 1.11e-02h  2
iter    objective    inf_pr   inf_du lg(mu)  ||d||  lg(rg) alpha_du alpha_pr  ls
  50 -1.2300047e-01 2.26e+01 4.81e+01  -6.0 2.65e+04    -  4.17e-02 3.30e-02h  1
  51 -1.2319510e-01 2.01e+01 3.17e+01  -6.0 3.62e+03 -10.6 1.82e-01 1.07e-01h  1
  52 -1.2327264e-01 1.97e+01 9.10e+01  -6.0 2.22e+04    -  6.89e-02 2.28e-02h  1
  53 -1.2329587e-01 1.92e+01 5.00e+01  -6.0 2.54e+03    -  7.68e-01 2.58e-02h  1
  54 -1.2348187e-01 1.20e+01 2.21e+01  -6.0 6.08e+02    -  1.00e+00 3.76e-01h  1
  55 -1.2366679e-01 7.34e+00 1.66e+01  -6.0 1.00e+03    -  7.40e-01 3.87e-01h  1
  56 -1.2390552e-01 1.59e+01 1.82e+01  -6.0 1.07e+03    -  3.21e-03 1.00e+00h  1
  57 -1.2403321e-01 7.09e+00 1.08e+01  -6.0 6.90e+02    -  4.98e-01 1.00e+00h  1
  58 -1.2405899e-01 4.44e+00 3.98e+00  -6.0 1.96e+02 -10.2 9.67e-01 3.76e-01h  1
  59 -1.2401068e-01 4.61e+00 1.70e+01  -6.0 1.32e+03    -  1.00e+00 2.06e-01h  1
iter    objective    inf_pr   inf_du lg(mu)  ||d||  lg(rg) alpha_du alpha_pr  ls
  60 -1.2405068e-01 1.32e+00 1.69e+01  -6.0 2.50e+02    -  2.62e-01 1.00e+00h  1
  61 -1.2404954e-01 2.35e-05 2.29e+00  -6.0 2.21e+00  -8.0 8.72e-01 1.00e+00h  1
  62 -1.2404386e-01 1.43e-02 1.89e-02  -6.0 3.12e+01    -  1.00e+00 1.00e+00h  1
  63 -1.2400256e-01 1.85e-02 1.15e+00  -6.0 2.34e+02    -  1.00e+00 1.00e+00H  1
  64 -1.2401325e-01 1.40e-01 9.61e-02  -6.0 5.96e+01    -  1.00e+00 1.00e+00h  1
  65 -1.2401701e-01 1.01e-02 8.78e-03  -6.0 2.13e+01    -  1.00e+00 1.00e+00h  1
  66 -1.2401721e-01 2.43e-05 2.28e-05  -6.0 1.12e+00    -  1.00e+00 1.00e+00h  1
  67 -1.2401721e-01 2.83e-10 1.46e-10  -6.0 2.73e-03    -  1.00e+00 1.00e+00h  1
  68 -1.2438985e-01 3.80e+01 1.00e+02  -9.0 5.85e+03    -  6.64e-02 2.77e-01f  1
  69 -1.2452524e-01 4.40e+01 1.11e+02  -9.0 6.65e+03    -  4.62e-02 1.25e-01h  1
iter    objective    inf_pr   inf_du lg(mu)  ||d||  lg(rg) alpha_du alpha_pr  ls
  70 -1.2459095e-01 4.52e+01 8.59e+01  -9.0 8.29e+03    -  3.13e-01 5.72e-02h  1
  71 -1.2465305e-01 4.38e+01 6.51e+01  -9.0 4.27e+03    -  3.82e-01 1.01e-01h  1
  72 -1.2472825e-01 3.64e+01 7.70e+01  -9.0 1.78e+03    -  3.90e-01 2.45e-01h  1
  73 -1.2478266e-01 3.10e+01 2.31e+02  -9.0 1.75e+03    -  5.75e-01 2.26e-01h  1
  74 -1.2480125e-01 2.87e+01 2.85e+02  -9.0 1.73e+03    -  7.45e-02 8.58e-02h  1
  75 -1.2480549e-01 1.93e+01 1.64e+02  -9.0 9.73e+01    -  5.19e-02 3.26e-01h  1
  76 -1.2479370e-01 8.11e-01 2.37e+01  -9.0 4.00e+01    -  3.16e-01 9.58e-01h  1
  77 -1.2479304e-01 4.43e-01 9.46e+00  -9.0 1.78e+01    -  9.72e-01 4.55e-01h  1
  78 -1.2479218e-01 1.76e-03 1.19e-02  -9.0 1.04e+01    -  1.00e+00 1.00e+00h  1
  79 -1.2479215e-01 8.61e-08 3.94e-07  -9.0 7.16e-02    -  1.00e+00 1.00e+00h  1
iter    objective    inf_pr   inf_du lg(mu)  ||d||  lg(rg) alpha_du alpha_pr  ls
  80 -1.2479215e-01 2.84e-10 2.02e-12  -9.0 1.36e-05    -  1.00e+00 1.00e+00h  1

Number of Iterations....: 80

                                   (scaled)                 (unscaled)
Objective...............:  -1.2479215425591866e-01   -1.2479215425591866e-01
Dual infeasibility......:   2.0195716786248175e-12    2.0195716786248175e-12
Constraint violation....:   2.8410680242858116e-10    2.8410680242858116e-10
Complementarity.........:   1.0003548943613708e-09    1.0003548943613708e-09
Overall NLP error.......:   1.0003548943613708e-09    1.0003548943613708e-09


Number of objective function evaluations             = 89
Number of objective gradient evaluations             = 81
Number of equality constraint evaluations            = 89
Number of inequality constraint evaluations          = 89
Number of equality constraint Jacobian evaluations   = 81
Number of inequality constraint Jacobian evaluations = 81
Number of Lagrangian Hessian evaluations             = 80
Total CPU secs in IPOPT (w/o function evaluations)   =    306.140
Total CPU secs in NLP function evaluations           =      5.297

EXIT: Optimal Solution Found.
